\ Model SP_copy
\ LP format - for model browsing. Use MPS format to capture full model detail.
Minimize
 
Subject To
 C5_new_nj_iff_facility_is_open(0,3,2): - r(0,3,2) + n(0,3,2) <= 0
Bounds
 r(0,3,2) = 0
 n(0,3,2) >= 0.6933333333333334
Binaries
 r(0,3,2)
End
